477,6
802,318
823,360
1095,471
1155,481
709,397
702,427
504,434
532,700
611,503
690,465
787,460
787,300
769,285
721,326
609,354
554,279
542,-21
1093,107
452,91
580,719
681,736
681,-104
681,-74
751,-38
874,140
630,81
745,207
